%Mem=61440MB 
%NProc=8 

#P HF/6-31G(d)  SCF(Conver=8,XQC,MaxConventionalCycles=64,MaxCycle=128) NoSymm Test 
   Pop=mk IOp(6/33=2) GFInput GFPrint 

 MEP step - Input generated by PyRED MOLECULE-1 

0 1 
S        0.066424        -4.559545         2.568195
C       -0.615427        -6.160581         2.918644
O       -0.156468        -6.951401         3.667593
N       -1.761945        -6.347911         2.180002
H       -2.261953        -7.209579         2.254122
C       -2.189390        -5.356645         1.337368
O       -3.151501        -5.435462         0.644567
C       -1.276840        -4.138400         1.401904
H       -1.859453        -3.332933         1.829647
C       -0.795528        -3.726366        -0.000015
H       -0.189502        -4.524510        -0.414730
H       -1.680596        -3.641699        -0.619998
C       -0.024262        -2.424411        -0.009637
C       -0.685198        -1.207047        -0.005962
H       -1.761996        -1.184929        -0.016065
C        0.000000         0.000000        -0.000000
H       -0.555397         0.917249        -0.001256
C        1.387170         0.000000        -0.000000
C        2.067275        -1.214179        -0.011278
H        3.141295        -1.202823        -0.018405
C        1.369270        -2.402817        -0.017082
H        1.916742        -3.328810        -0.029721
O        2.152583         1.107721        -0.000000
C        1.557676         2.383922         0.043297
H        0.961547         2.543983        -0.851380
H        0.916634         2.473098         0.910695
C        2.669733         3.416623         0.104913
H        2.229821         4.396669         0.001268
H        3.338389         3.260173        -0.732334
N        3.454869         3.372854         1.321940
C        4.614956         2.509891         1.379542
H        4.791293         2.096463         0.399178
H        5.502321         3.059718         1.678892
H        4.474097         1.680237         2.066173
C        2.993206         3.988737         2.455575
N        1.848908         4.651343         2.360839
C        1.380613         5.280751         3.426750
H        0.449804         5.802278         3.281666
C        1.998723         5.293022         4.655904
H        1.571778         5.818098         5.488956
C        3.193602         4.588375         4.760783
H        3.724728         4.555246         5.695922
C        3.705188         3.928544         3.670455
H        4.624968         3.386576         3.751569
 

